(set-logic QF_NRA)
(set-info :source |Benchmarks generated from hycomp (https://es-static.fbk.eu/tools/hycomp/). BMC instances of non-linear hybrid automata taken from: Alessandro Cimatti, Sergio Mover, Stefano Tonetta, A quantifier-free SMT encoding of non-linear hybrid automata, FMCAD 2012 and Alessandro Cimatti, Sergio Mover, Stefano Tonetta, Quantier-free encoding of invariants for Hybrid Systems, Formal Methods in System Design. This instance solves a BMC problem of depth 2 and uses the quantifier free encoding with equivalences and lemmas encoding. Contacts: Sergio Mover (mover@fbk.eu), Stefano Tonetta (tonettas@fbk.eu), Alessandro Cimatti (cimatti@fbk.eu).|)
(set-info :smt-lib-version 2.0)
(set-info :category "industrial")
(set-info :status unsat)
;; MathSAT API call trace
;; generated on Mon Mar 19 10:38:21 2012
(declare-fun b.x__AT0 () Real)
(declare-fun b.speed_y__AT1 () Real)
(declare-fun b.delta__AT1 () Real)
(declare-fun b.bool_atom__AT0 () Bool)
(declare-fun b.y__AT0 () Real)
(declare-fun b.EVENT.1__AT1 () Bool)
(declare-fun b.EVENT.0__AT1 () Bool)
(declare-fun b.counter.0__AT0 () Bool)
(declare-fun b.event_is_timed__AT2 () Bool)
(declare-fun b.delta__AT0 () Real)
(declare-fun b.counter.1__AT0 () Bool)
(declare-fun b.y__AT1 () Real)
(declare-fun b.EVENT.0__AT0 () Bool)
(declare-fun b.event_is_timed__AT0 () Bool)
(declare-fun b.time__AT2 () Real)
(declare-fun b.y__AT2 () Real)
(declare-fun b.delta__AT2 () Real)
(declare-fun b.counter.0__AT2 () Bool)
(declare-fun b.speed_y__AT0 () Real)
(declare-fun b.x__AT2 () Real)
(declare-fun b.EVENT.0__AT2 () Bool)
(declare-fun b.speed_x__AT1 () Real)
(declare-fun b.counter.1__AT2 () Bool)
(declare-fun b.EVENT.1__AT2 () Bool)
(declare-fun b.counter.2__AT2 () Bool)
(declare-fun b.counter.3__AT2 () Bool)
(declare-fun b.bool_atom__AT2 () Bool)
(declare-fun b.EVENT.1__AT0 () Bool)
(declare-fun b.counter.3__AT0 () Bool)
(declare-fun b.speed_x__AT2 () Real)
(declare-fun b.speed_y__AT2 () Real)
(declare-fun b.time__AT1 () Real)
(declare-fun b.x__AT1 () Real)
(declare-fun b.event_is_timed__AT1 () Bool)
(declare-fun b.counter.0__AT1 () Bool)
(declare-fun b.speed_loss__AT0 () Real)
(declare-fun b.counter.1__AT1 () Bool)
(declare-fun b.speed_x__AT0 () Real)
(declare-fun b.counter.2__AT1 () Bool)
(declare-fun b.time__AT0 () Real)
(declare-fun b.counter.2__AT0 () Bool)
(declare-fun b.counter.3__AT1 () Bool)
(declare-fun b.bool_atom__AT1 () Bool)
(assert (let ((.def_951 (* (- 49.0) b.delta__AT2)))
(let ((.def_952 (* 5.0 b.speed_y__AT2)))
(let ((.def_954 (+ .def_952 .def_951)))
(let ((.def_967 (<= 0.0 .def_954)))
(let ((.def_968 (not .def_967)))
(let ((.def_965 (<= 0.0 b.speed_y__AT2)))
(let ((.def_982 (or .def_965 .def_968)))
(let ((.def_957 (<= b.speed_y__AT2 0.0 )))
(let ((.def_958 (not .def_957)))
(let ((.def_955 (<= .def_954 0.0 )))
(let ((.def_981 (or .def_955 .def_958)))
(let ((.def_983 (and .def_981 .def_982)))
(let ((.def_837 (* b.y__AT2 b.speed_y__AT2)))
(let ((.def_878 (* 2.0 .def_837)))
(let ((.def_879 (+ b.speed_x__AT2 .def_878)))
(let ((.def_892 (<= .def_879 0.0 )))
(let ((.def_978 (and .def_892 .def_967)))
(let ((.def_880 (<= 0.0 .def_879)))
(let ((.def_977 (and .def_880 .def_955)))
(let ((.def_979 (or .def_977 .def_978)))
(let ((.def_826 (* (- (/ 49 10)) b.speed_y__AT2)))
(let ((.def_855 (* 3.0 .def_826)))
(let ((.def_911 (* 2.0 .def_855)))
(let ((.def_912 (* b.delta__AT2 .def_911)))
(let ((.def_913 (* (- 50.0) .def_912)))
(let ((.def_821 (* b.delta__AT2 b.delta__AT2)))
(let ((.def_910 (* (- 7203.0) .def_821)))
(let ((.def_914 (+ .def_910 .def_913)))
(let ((.def_702 (* b.speed_y__AT2 b.speed_y__AT2)))
(let ((.def_915 (* (- 50.0) .def_702)))
(let ((.def_919 (+ .def_915 .def_914)))
(let ((.def_917 (* 490.0 b.y__AT2)))
(let ((.def_920 (+ .def_917 .def_919)))
(let ((.def_937 (<= 0.0 .def_920)))
(let ((.def_938 (not .def_937)))
(let ((.def_923 (* (- 5.0) .def_702)))
(let ((.def_924 (* 49.0 b.y__AT2)))
(let ((.def_926 (+ .def_924 .def_923)))
(let ((.def_935 (<= 0.0 .def_926)))
(let ((.def_972 (or .def_935 .def_938)))
(let ((.def_927 (<= .def_926 0.0 )))
(let ((.def_928 (not .def_927)))
(let ((.def_921 (<= .def_920 0.0 )))
(let ((.def_971 (or .def_921 .def_928)))
(let ((.def_973 (and .def_971 .def_972)))
(let ((.def_966 (not .def_965)))
(let ((.def_969 (or .def_966 .def_968)))
(let ((.def_970 (not .def_969)))
(let ((.def_974 (or .def_970 .def_973)))
(let ((.def_922 (not .def_921)))
(let ((.def_962 (or .def_922 .def_927)))
(let ((.def_936 (not .def_935)))
(let ((.def_961 (or .def_936 .def_937)))
(let ((.def_963 (and .def_961 .def_962)))
(let ((.def_956 (not .def_955)))
(let ((.def_959 (or .def_956 .def_958)))
(let ((.def_960 (not .def_959)))
(let ((.def_964 (or .def_960 .def_963)))
(let ((.def_975 (and .def_964 .def_974)))
(let ((.def_948 (and .def_892 .def_937)))
(let ((.def_947 (and .def_880 .def_921)))
(let ((.def_949 (or .def_947 .def_948)))
(let ((.def_833 (* (- (/ 49 10)) b.y__AT2)))
(let ((.def_863 (* 2.0 .def_833)))
(let ((.def_864 (* b.delta__AT2 .def_863)))
(let ((.def_865 (* 50.0 .def_864)))
(let ((.def_859 (* 2.0 .def_702)))
(let ((.def_860 (* b.delta__AT2 .def_859)))
(let ((.def_861 (* 25.0 .def_860)))
(let ((.def_871 (+ .def_861 .def_865)))
(let ((.def_856 (* .def_821 .def_855)))
(let ((.def_857 (* 50.0 .def_856)))
(let ((.def_872 (+ .def_857 .def_871)))
(let ((.def_867 (* 50.0 .def_837)))
(let ((.def_873 (+ .def_867 .def_872)))
(let ((.def_822 (* b.delta__AT2 .def_821)))
(let ((.def_854 (* 2401.0 .def_822)))
(let ((.def_874 (+ .def_854 .def_873)))
(let ((.def_869 (* 25.0 b.speed_x__AT2)))
(let ((.def_875 (+ .def_869 .def_874)))
(let ((.def_894 (<= .def_875 0.0 )))
(let ((.def_895 (not .def_894)))
(let ((.def_942 (or .def_892 .def_895)))
(let ((.def_881 (not .def_880)))
(let ((.def_876 (<= 0.0 .def_875)))
(let ((.def_941 (or .def_876 .def_881)))
(let ((.def_943 (and .def_941 .def_942)))
(let ((.def_939 (or .def_936 .def_938)))
(let ((.def_940 (not .def_939)))
(let ((.def_944 (or .def_940 .def_943)))
(let ((.def_877 (not .def_876)))
(let ((.def_932 (or .def_877 .def_880)))
(let ((.def_893 (not .def_892)))
(let ((.def_931 (or .def_893 .def_894)))
(let ((.def_933 (and .def_931 .def_932)))
(let ((.def_929 (or .def_922 .def_928)))
(let ((.def_930 (not .def_929)))
(let ((.def_934 (or .def_930 .def_933)))
(let ((.def_945 (and .def_934 .def_944)))
(let ((.def_907 (and .def_892 .def_894)))
(let ((.def_906 (and .def_876 .def_880)))
(let ((.def_908 (or .def_906 .def_907)))
(let ((.def_838 (* b.delta__AT2 .def_837)))
(let ((.def_839 (* 200.0 .def_838)))
(let ((.def_834 (* .def_821 .def_833)))
(let ((.def_835 (* 200.0 .def_834)))
(let ((.def_845 (+ .def_835 .def_839)))
(let ((.def_830 (* .def_702 .def_821)))
(let ((.def_831 (* 100.0 .def_830)))
(let ((.def_846 (+ .def_831 .def_845)))
(let ((.def_827 (* .def_822 .def_826)))
(let ((.def_828 (* 200.0 .def_827)))
(let ((.def_847 (+ .def_828 .def_846)))
(let ((.def_823 (* b.delta__AT2 .def_822)))
(let ((.def_824 (* 2401.0 .def_823)))
(let ((.def_848 (+ .def_824 .def_847)))
(let ((.def_819 (* b.speed_x__AT2 b.delta__AT2)))
(let ((.def_820 (* 100.0 .def_819)))
(let ((.def_849 (+ .def_820 .def_848)))
(let ((.def_805 (* b.y__AT2 b.y__AT2)))
(let ((.def_841 (* 100.0 .def_805)))
(let ((.def_850 (+ .def_841 .def_849)))
(let ((.def_843 (* 100.0 b.x__AT2)))
(let ((.def_851 (+ .def_843 .def_850)))
(let ((.def_886 (<= .def_851 0.0 )))
(let ((.def_900 (not .def_886)))
(let ((.def_806 (+ b.x__AT2 .def_805)))
(let ((.def_884 (<= .def_806 0.0 )))
(let ((.def_901 (or .def_884 .def_900)))
(let ((.def_807 (<= 0.0 .def_806)))
(let ((.def_898 (not .def_807)))
(let ((.def_852 (<= 0.0 .def_851)))
(let ((.def_899 (or .def_852 .def_898)))
(let ((.def_902 (and .def_899 .def_901)))
(let ((.def_896 (or .def_893 .def_895)))
(let ((.def_897 (not .def_896)))
(let ((.def_903 (or .def_897 .def_902)))
(let ((.def_888 (not .def_852)))
(let ((.def_889 (or .def_807 .def_888)))
(let ((.def_885 (not .def_884)))
(let ((.def_887 (or .def_885 .def_886)))
(let ((.def_890 (and .def_887 .def_889)))
(let ((.def_882 (or .def_877 .def_881)))
(let ((.def_883 (not .def_882)))
(let ((.def_891 (or .def_883 .def_890)))
(let ((.def_904 (and .def_891 .def_903)))
(let ((.def_853 (and .def_807 .def_852)))
(let ((.def_905 (and .def_853 .def_904)))
(let ((.def_909 (and .def_905 .def_908)))
(let ((.def_946 (and .def_909 .def_945)))
(let ((.def_950 (and .def_946 .def_949)))
(let ((.def_976 (and .def_950 .def_975)))
(let ((.def_980 (and .def_976 .def_979)))
(let ((.def_984 (and .def_980 .def_983)))
(let ((.def_71 (<= b.speed_loss__AT0 (/ 1 2))))
(let ((.def_68 (<= (/ 1 10) b.speed_loss__AT0)))
(let ((.def_72 (and .def_68 .def_71)))
(let ((.def_985 (and .def_72 .def_984)))
(let ((.def_361 (not b.counter.0__AT1)))
(let ((.def_351 (not b.counter.1__AT1)))
(let ((.def_811 (and .def_351 .def_361)))
(let ((.def_814 (or b.counter.3__AT1 .def_811)))
(let ((.def_356 (not b.counter.2__AT1)))
(let ((.def_812 (and .def_356 .def_811)))
(let ((.def_370 (not b.counter.3__AT1)))
(let ((.def_813 (or .def_370 .def_812)))
(let ((.def_815 (and .def_813 .def_814)))
(let ((.def_808 (and .def_72 .def_807)))
(let ((.def_802 (not b.EVENT.0__AT2)))
(let ((.def_800 (not b.EVENT.1__AT2)))
(let ((.def_803 (or .def_800 .def_802)))
(let ((.def_6 (not b.counter.0__AT2)))
(let ((.def_4 (not b.counter.1__AT2)))
(let ((.def_793 (or .def_4 .def_6)))
(let ((.def_797 (or b.counter.3__AT2 .def_793)))
(let ((.def_794 (or b.counter.2__AT2 .def_793)))
(let ((.def_9 (not b.counter.2__AT2)))
(let ((.def_792 (or .def_6 .def_9)))
(let ((.def_795 (and .def_792 .def_794)))
(let ((.def_12 (not b.counter.3__AT2)))
(let ((.def_796 (or .def_12 .def_795)))
(let ((.def_798 (and .def_796 .def_797)))
(let ((.def_804 (and .def_798 .def_803)))
(let ((.def_809 (and .def_804 .def_808)))
(let ((.def_787 (<= 0.0 b.delta__AT1)))
(let ((.def_450 (not b.EVENT.0__AT1)))
(let ((.def_448 (not b.EVENT.1__AT1)))
(let ((.def_633 (and .def_448 .def_450)))
(let ((.def_635 (not .def_633)))
(let ((.def_788 (or .def_635 .def_787)))
(let ((.def_789 (or b.EVENT.1__AT1 .def_788)))
(let ((.def_673 (= b.bool_atom__AT1 b.bool_atom__AT2)))
(let ((.def_669 (= b.counter.0__AT2 b.counter.0__AT1)))
(let ((.def_667 (= b.counter.1__AT2 b.counter.1__AT1)))
(let ((.def_665 (= b.counter.2__AT2 b.counter.2__AT1)))
(let ((.def_664 (= b.counter.3__AT2 b.counter.3__AT1)))
(let ((.def_666 (and .def_664 .def_665)))
(let ((.def_668 (and .def_666 .def_667)))
(let ((.def_670 (and .def_668 .def_669)))
(let ((.def_783 (and .def_670 .def_673)))
(let ((.def_784 (or .def_635 .def_783)))
(let ((.def_785 (or b.EVENT.1__AT1 .def_784)))
(let ((.def_766 (* b.speed_y__AT1 b.delta__AT1)))
(let ((.def_767 (* 10.0 .def_766)))
(let ((.def_768 (* (- 10.0) b.y__AT2)))
(let ((.def_774 (+ .def_768 .def_767)))
(let ((.def_467 (* b.delta__AT1 b.delta__AT1)))
(let ((.def_770 (* (- 49.0) .def_467)))
(let ((.def_775 (+ .def_770 .def_774)))
(let ((.def_772 (* 10.0 b.y__AT1)))
(let ((.def_776 (+ .def_772 .def_775)))
(let ((.def_777 (= .def_776 0.0 )))
(let ((.def_761 (* (- 5.0) b.speed_y__AT2)))
(let ((.def_597 (* (- 49.0) b.delta__AT1)))
(let ((.def_762 (+ .def_597 .def_761)))
(let ((.def_598 (* 5.0 b.speed_y__AT1)))
(let ((.def_763 (+ .def_598 .def_762)))
(let ((.def_764 (= .def_763 0.0 )))
(let ((.def_757 (* (- 1.0) b.x__AT2)))
(let ((.def_465 (* b.speed_x__AT1 b.delta__AT1)))
(let ((.def_758 (+ .def_465 .def_757)))
(let ((.def_759 (+ b.x__AT1 .def_758)))
(let ((.def_760 (= .def_759 0.0 )))
(let ((.def_765 (and .def_760 .def_764)))
(let ((.def_778 (and .def_765 .def_777)))
(let ((.def_659 (= b.speed_x__AT1 b.speed_x__AT2)))
(let ((.def_779 (and .def_659 .def_778)))
(let ((.def_780 (or .def_635 .def_779)))
(let ((.def_656 (= b.y__AT1 b.y__AT2)))
(let ((.def_653 (= b.x__AT1 b.x__AT2)))
(let ((.def_751 (and .def_653 .def_656)))
(let ((.def_752 (and .def_659 .def_751)))
(let ((.def_662 (= b.speed_y__AT1 b.speed_y__AT2)))
(let ((.def_753 (and .def_662 .def_752)))
(let ((.def_748 (= b.delta__AT1 0.0 )))
(let ((.def_749 (and .def_633 .def_748)))
(let ((.def_750 (not .def_749)))
(let ((.def_754 (or .def_750 .def_753)))
(let ((.def_755 (or b.EVENT.1__AT1 .def_754)))
(let ((.def_740 (and .def_659 .def_662)))
(let ((.def_741 (and .def_670 .def_740)))
(let ((.def_742 (or b.bool_atom__AT1 .def_741)))
(let ((.def_716 (or .def_6 b.counter.0__AT1)))
(let ((.def_715 (or b.counter.0__AT2 .def_361)))
(let ((.def_717 (and .def_715 .def_716)))
(let ((.def_718 (and .def_4 .def_717)))
(let ((.def_719 (or b.counter.1__AT1 .def_718)))
(let ((.def_714 (or b.counter.1__AT2 .def_351)))
(let ((.def_720 (and .def_714 .def_719)))
(let ((.def_731 (and .def_9 .def_720)))
(let ((.def_732 (or b.counter.2__AT1 .def_731)))
(let ((.def_726 (and .def_4 .def_361)))
(let ((.def_727 (or b.counter.1__AT1 .def_726)))
(let ((.def_728 (and .def_714 .def_727)))
(let ((.def_729 (and b.counter.2__AT2 .def_728)))
(let ((.def_730 (or .def_356 .def_729)))
(let ((.def_733 (and .def_730 .def_732)))
(let ((.def_734 (and b.counter.3__AT2 .def_733)))
(let ((.def_735 (or b.counter.3__AT1 .def_734)))
(let ((.def_721 (and b.counter.2__AT2 .def_720)))
(let ((.def_722 (or b.counter.2__AT1 .def_721)))
(let ((.def_710 (or b.counter.1__AT2 b.counter.1__AT1)))
(let ((.def_708 (and .def_4 b.counter.0__AT2)))
(let ((.def_709 (or .def_351 .def_708)))
(let ((.def_711 (and .def_709 .def_710)))
(let ((.def_712 (and .def_9 .def_711)))
(let ((.def_713 (or .def_356 .def_712)))
(let ((.def_723 (and .def_713 .def_722)))
(let ((.def_724 (and .def_12 .def_723)))
(let ((.def_725 (or .def_370 .def_724)))
(let ((.def_736 (and .def_725 .def_735)))
(let ((.def_345 (* b.speed_y__AT1 b.speed_y__AT1)))
(let ((.def_338 (* b.speed_x__AT1 b.speed_x__AT1)))
(let ((.def_698 (+ .def_338 .def_345)))
(let ((.def_326 (* (- 1.0) b.speed_loss__AT0)))
(let ((.def_327 (+ 1.0 .def_326)))
(let ((.def_339 (* .def_327 .def_327)))
(let ((.def_699 (* .def_339 .def_698)))
(let ((.def_700 (* (- 1.0) .def_699)))
(let ((.def_704 (+ .def_700 .def_702)))
(let ((.def_697 (* b.speed_x__AT2 b.speed_x__AT2)))
(let ((.def_705 (+ .def_697 .def_704)))
(let ((.def_706 (= .def_705 0.0 )))
(let ((.def_324 (* 2.0 b.y__AT1)))
(let ((.def_689 (* .def_324 .def_327)))
(let ((.def_690 (* b.speed_y__AT1 .def_689)))
(let ((.def_687 (* b.speed_x__AT1 .def_327)))
(let ((.def_693 (+ .def_687 .def_690)))
(let ((.def_685 (* 2.0 b.y__AT2)))
(let ((.def_686 (* b.speed_y__AT2 .def_685)))
(let ((.def_694 (+ .def_686 .def_693)))
(let ((.def_695 (+ b.speed_x__AT2 .def_694)))
(let ((.def_696 (= .def_695 0.0 )))
(let ((.def_707 (and .def_696 .def_706)))
(let ((.def_737 (and .def_707 .def_736)))
(let ((.def_684 (not b.bool_atom__AT1)))
(let ((.def_738 (or .def_684 .def_737)))
(let ((.def_325 (* b.speed_y__AT1 .def_324)))
(let ((.def_679 (+ b.speed_x__AT1 .def_325)))
(let ((.def_680 (<= 0.0 .def_679)))
(let ((.def_681 (not .def_680)))
(let ((.def_453 (* b.y__AT1 b.y__AT1)))
(let ((.def_454 (+ b.x__AT1 .def_453)))
(let ((.def_678 (= .def_454 0.0 )))
(let ((.def_682 (and .def_678 .def_681)))
(let ((.def_683 (= b.bool_atom__AT1 .def_682)))
(let ((.def_739 (and .def_683 .def_738)))
(let ((.def_743 (and .def_739 .def_742)))
(let ((.def_744 (and .def_653 .def_743)))
(let ((.def_745 (and .def_656 .def_744)))
(let ((.def_746 (or .def_633 .def_745)))
(let ((.def_747 (or b.EVENT.1__AT1 .def_746)))
(let ((.def_756 (and .def_747 .def_755)))
(let ((.def_781 (and .def_756 .def_780)))
(let ((.def_640 (= b.time__AT1 b.time__AT2)))
(let ((.def_654 (and .def_640 .def_653)))
(let ((.def_657 (and .def_654 .def_656)))
(let ((.def_660 (and .def_657 .def_659)))
(let ((.def_663 (and .def_660 .def_662)))
(let ((.def_671 (and .def_663 .def_670)))
(let ((.def_674 (and .def_671 .def_673)))
(let ((.def_675 (or .def_448 .def_674)))
(let ((.def_643 (* (- 1.0) b.time__AT2)))
(let ((.def_646 (+ b.delta__AT1 .def_643)))
(let ((.def_647 (+ b.time__AT1 .def_646)))
(let ((.def_648 (= .def_647 0.0 )))
(let ((.def_649 (or .def_635 .def_648)))
(let ((.def_650 (or b.EVENT.1__AT1 .def_649)))
(let ((.def_641 (or .def_633 .def_640)))
(let ((.def_642 (or b.EVENT.1__AT1 .def_641)))
(let ((.def_651 (and .def_642 .def_650)))
(let ((.def_676 (and .def_651 .def_675)))
(let ((.def_637 (= .def_635 b.event_is_timed__AT2)))
(let ((.def_634 (= b.event_is_timed__AT1 .def_633)))
(let ((.def_638 (and .def_634 .def_637)))
(let ((.def_677 (and .def_638 .def_676)))
(let ((.def_782 (and .def_677 .def_781)))
(let ((.def_786 (and .def_782 .def_785)))
(let ((.def_790 (and .def_786 .def_789)))
(let ((.def_791 (and .def_448 .def_790)))
(let ((.def_810 (and .def_791 .def_809)))
(let ((.def_816 (and .def_810 .def_815)))
(let ((.def_600 (+ .def_598 .def_597)))
(let ((.def_613 (<= 0.0 .def_600)))
(let ((.def_614 (not .def_613)))
(let ((.def_611 (<= 0.0 b.speed_y__AT1)))
(let ((.def_628 (or .def_611 .def_614)))
(let ((.def_603 (<= b.speed_y__AT1 0.0 )))
(let ((.def_604 (not .def_603)))
(let ((.def_601 (<= .def_600 0.0 )))
(let ((.def_627 (or .def_601 .def_604)))
(let ((.def_629 (and .def_627 .def_628)))
(let ((.def_483 (* b.y__AT1 b.speed_y__AT1)))
(let ((.def_524 (* 2.0 .def_483)))
(let ((.def_525 (+ b.speed_x__AT1 .def_524)))
(let ((.def_538 (<= .def_525 0.0 )))
(let ((.def_624 (and .def_538 .def_613)))
(let ((.def_526 (<= 0.0 .def_525)))
(let ((.def_623 (and .def_526 .def_601)))
(let ((.def_625 (or .def_623 .def_624)))
(let ((.def_472 (* (- (/ 49 10)) b.speed_y__AT1)))
(let ((.def_501 (* 3.0 .def_472)))
(let ((.def_557 (* 2.0 .def_501)))
(let ((.def_558 (* b.delta__AT1 .def_557)))
(let ((.def_559 (* (- 50.0) .def_558)))
(let ((.def_556 (* (- 7203.0) .def_467)))
(let ((.def_560 (+ .def_556 .def_559)))
(let ((.def_561 (* (- 50.0) .def_345)))
(let ((.def_565 (+ .def_561 .def_560)))
(let ((.def_563 (* 490.0 b.y__AT1)))
(let ((.def_566 (+ .def_563 .def_565)))
(let ((.def_583 (<= 0.0 .def_566)))
(let ((.def_584 (not .def_583)))
(let ((.def_569 (* (- 5.0) .def_345)))
(let ((.def_570 (* 49.0 b.y__AT1)))
(let ((.def_572 (+ .def_570 .def_569)))
(let ((.def_581 (<= 0.0 .def_572)))
(let ((.def_618 (or .def_581 .def_584)))
(let ((.def_573 (<= .def_572 0.0 )))
(let ((.def_574 (not .def_573)))
(let ((.def_567 (<= .def_566 0.0 )))
(let ((.def_617 (or .def_567 .def_574)))
(let ((.def_619 (and .def_617 .def_618)))
(let ((.def_612 (not .def_611)))
(let ((.def_615 (or .def_612 .def_614)))
(let ((.def_616 (not .def_615)))
(let ((.def_620 (or .def_616 .def_619)))
(let ((.def_568 (not .def_567)))
(let ((.def_608 (or .def_568 .def_573)))
(let ((.def_582 (not .def_581)))
(let ((.def_607 (or .def_582 .def_583)))
(let ((.def_609 (and .def_607 .def_608)))
(let ((.def_602 (not .def_601)))
(let ((.def_605 (or .def_602 .def_604)))
(let ((.def_606 (not .def_605)))
(let ((.def_610 (or .def_606 .def_609)))
(let ((.def_621 (and .def_610 .def_620)))
(let ((.def_594 (and .def_538 .def_583)))
(let ((.def_593 (and .def_526 .def_567)))
(let ((.def_595 (or .def_593 .def_594)))
(let ((.def_479 (* (- (/ 49 10)) b.y__AT1)))
(let ((.def_509 (* 2.0 .def_479)))
(let ((.def_510 (* b.delta__AT1 .def_509)))
(let ((.def_511 (* 50.0 .def_510)))
(let ((.def_505 (* 2.0 .def_345)))
(let ((.def_506 (* b.delta__AT1 .def_505)))
(let ((.def_507 (* 25.0 .def_506)))
(let ((.def_517 (+ .def_507 .def_511)))
(let ((.def_502 (* .def_467 .def_501)))
(let ((.def_503 (* 50.0 .def_502)))
(let ((.def_518 (+ .def_503 .def_517)))
(let ((.def_513 (* 50.0 .def_483)))
(let ((.def_519 (+ .def_513 .def_518)))
(let ((.def_468 (* b.delta__AT1 .def_467)))
(let ((.def_500 (* 2401.0 .def_468)))
(let ((.def_520 (+ .def_500 .def_519)))
(let ((.def_515 (* 25.0 b.speed_x__AT1)))
(let ((.def_521 (+ .def_515 .def_520)))
(let ((.def_540 (<= .def_521 0.0 )))
(let ((.def_541 (not .def_540)))
(let ((.def_588 (or .def_538 .def_541)))
(let ((.def_527 (not .def_526)))
(let ((.def_522 (<= 0.0 .def_521)))
(let ((.def_587 (or .def_522 .def_527)))
(let ((.def_589 (and .def_587 .def_588)))
(let ((.def_585 (or .def_582 .def_584)))
(let ((.def_586 (not .def_585)))
(let ((.def_590 (or .def_586 .def_589)))
(let ((.def_523 (not .def_522)))
(let ((.def_578 (or .def_523 .def_526)))
(let ((.def_539 (not .def_538)))
(let ((.def_577 (or .def_539 .def_540)))
(let ((.def_579 (and .def_577 .def_578)))
(let ((.def_575 (or .def_568 .def_574)))
(let ((.def_576 (not .def_575)))
(let ((.def_580 (or .def_576 .def_579)))
(let ((.def_591 (and .def_580 .def_590)))
(let ((.def_553 (and .def_538 .def_540)))
(let ((.def_552 (and .def_522 .def_526)))
(let ((.def_554 (or .def_552 .def_553)))
(let ((.def_484 (* b.delta__AT1 .def_483)))
(let ((.def_485 (* 200.0 .def_484)))
(let ((.def_480 (* .def_467 .def_479)))
(let ((.def_481 (* 200.0 .def_480)))
(let ((.def_491 (+ .def_481 .def_485)))
(let ((.def_476 (* .def_345 .def_467)))
(let ((.def_477 (* 100.0 .def_476)))
(let ((.def_492 (+ .def_477 .def_491)))
(let ((.def_473 (* .def_468 .def_472)))
(let ((.def_474 (* 200.0 .def_473)))
(let ((.def_493 (+ .def_474 .def_492)))
(let ((.def_469 (* b.delta__AT1 .def_468)))
(let ((.def_470 (* 2401.0 .def_469)))
(let ((.def_494 (+ .def_470 .def_493)))
(let ((.def_466 (* 100.0 .def_465)))
(let ((.def_495 (+ .def_466 .def_494)))
(let ((.def_487 (* 100.0 .def_453)))
(let ((.def_496 (+ .def_487 .def_495)))
(let ((.def_489 (* 100.0 b.x__AT1)))
(let ((.def_497 (+ .def_489 .def_496)))
(let ((.def_532 (<= .def_497 0.0 )))
(let ((.def_546 (not .def_532)))
(let ((.def_530 (<= .def_454 0.0 )))
(let ((.def_547 (or .def_530 .def_546)))
(let ((.def_455 (<= 0.0 .def_454)))
(let ((.def_544 (not .def_455)))
(let ((.def_498 (<= 0.0 .def_497)))
(let ((.def_545 (or .def_498 .def_544)))
(let ((.def_548 (and .def_545 .def_547)))
(let ((.def_542 (or .def_539 .def_541)))
(let ((.def_543 (not .def_542)))
(let ((.def_549 (or .def_543 .def_548)))
(let ((.def_534 (not .def_498)))
(let ((.def_535 (or .def_455 .def_534)))
(let ((.def_531 (not .def_530)))
(let ((.def_533 (or .def_531 .def_532)))
(let ((.def_536 (and .def_533 .def_535)))
(let ((.def_528 (or .def_523 .def_527)))
(let ((.def_529 (not .def_528)))
(let ((.def_537 (or .def_529 .def_536)))
(let ((.def_550 (and .def_537 .def_549)))
(let ((.def_499 (and .def_455 .def_498)))
(let ((.def_551 (and .def_499 .def_550)))
(let ((.def_555 (and .def_551 .def_554)))
(let ((.def_592 (and .def_555 .def_591)))
(let ((.def_596 (and .def_592 .def_595)))
(let ((.def_622 (and .def_596 .def_621)))
(let ((.def_626 (and .def_622 .def_625)))
(let ((.def_630 (and .def_626 .def_629)))
(let ((.def_631 (and .def_72 .def_630)))
(let ((.def_41 (not b.counter.0__AT0)))
(let ((.def_39 (not b.counter.1__AT0)))
(let ((.def_42 (and .def_39 .def_41)))
(let ((.def_460 (or .def_42 b.counter.3__AT0)))
(let ((.def_47 (not b.counter.3__AT0)))
(let ((.def_44 (not b.counter.2__AT0)))
(let ((.def_45 (and .def_42 .def_44)))
(let ((.def_459 (or .def_45 .def_47)))
(let ((.def_461 (and .def_459 .def_460)))
(let ((.def_456 (and .def_72 .def_455)))
(let ((.def_451 (or .def_448 .def_450)))
(let ((.def_441 (or .def_351 .def_361)))
(let ((.def_445 (or b.counter.3__AT1 .def_441)))
(let ((.def_442 (or b.counter.2__AT1 .def_441)))
(let ((.def_440 (or .def_356 .def_361)))
(let ((.def_443 (and .def_440 .def_442)))
(let ((.def_444 (or .def_370 .def_443)))
(let ((.def_446 (and .def_444 .def_445)))
(let ((.def_452 (and .def_446 .def_451)))
(let ((.def_457 (and .def_452 .def_456)))
(let ((.def_435 (<= 0.0 b.delta__AT0)))
(let ((.def_60 (not b.EVENT.0__AT0)))
(let ((.def_58 (not b.EVENT.1__AT0)))
(let ((.def_264 (and .def_58 .def_60)))
(let ((.def_266 (not .def_264)))
(let ((.def_436 (or .def_266 .def_435)))
(let ((.def_437 (or b.EVENT.1__AT0 .def_436)))
(let ((.def_310 (= b.bool_atom__AT0 b.bool_atom__AT1)))
(let ((.def_305 (= b.counter.0__AT0 b.counter.0__AT1)))
(let ((.def_302 (= b.counter.1__AT0 b.counter.1__AT1)))
(let ((.def_299 (= b.counter.2__AT0 b.counter.2__AT1)))
(let ((.def_297 (= b.counter.3__AT0 b.counter.3__AT1)))
(let ((.def_300 (and .def_297 .def_299)))
(let ((.def_303 (and .def_300 .def_302)))
(let ((.def_306 (and .def_303 .def_305)))
(let ((.def_431 (and .def_306 .def_310)))
(let ((.def_432 (or .def_266 .def_431)))
(let ((.def_433 (or b.EVENT.1__AT0 .def_432)))
(let ((.def_413 (* b.speed_y__AT0 b.delta__AT0)))
(let ((.def_414 (* 10.0 .def_413)))
(let ((.def_418 (* (- 10.0) b.y__AT1)))
(let ((.def_422 (+ .def_418 .def_414)))
(let ((.def_81 (* b.delta__AT0 b.delta__AT0)))
(let ((.def_415 (* (- 49.0) .def_81)))
(let ((.def_423 (+ .def_415 .def_422)))
(let ((.def_420 (* 10.0 b.y__AT0)))
(let ((.def_424 (+ .def_420 .def_423)))
(let ((.def_425 (= .def_424 0.0 )))
(let ((.def_408 (* (- 5.0) b.speed_y__AT1)))
(let ((.def_228 (* (- 49.0) b.delta__AT0)))
(let ((.def_409 (+ .def_228 .def_408)))
(let ((.def_229 (* 5.0 b.speed_y__AT0)))
(let ((.def_410 (+ .def_229 .def_409)))
(let ((.def_411 (= .def_410 0.0 )))
(let ((.def_404 (* (- 1.0) b.x__AT1)))
(let ((.def_78 (* b.speed_x__AT0 b.delta__AT0)))
(let ((.def_405 (+ .def_78 .def_404)))
(let ((.def_406 (+ b.x__AT0 .def_405)))
(let ((.def_407 (= .def_406 0.0 )))
(let ((.def_412 (and .def_407 .def_411)))
(let ((.def_426 (and .def_412 .def_425)))
(let ((.def_291 (= b.speed_x__AT0 b.speed_x__AT1)))
(let ((.def_427 (and .def_291 .def_426)))
(let ((.def_428 (or .def_266 .def_427)))
(let ((.def_288 (= b.y__AT0 b.y__AT1)))
(let ((.def_285 (= b.x__AT0 b.x__AT1)))
(let ((.def_398 (and .def_285 .def_288)))
(let ((.def_399 (and .def_291 .def_398)))
(let ((.def_294 (= b.speed_y__AT0 b.speed_y__AT1)))
(let ((.def_400 (and .def_294 .def_399)))
(let ((.def_395 (= b.delta__AT0 0.0 )))
(let ((.def_396 (and .def_264 .def_395)))
(let ((.def_397 (not .def_396)))
(let ((.def_401 (or .def_397 .def_400)))
(let ((.def_402 (or b.EVENT.1__AT0 .def_401)))
(let ((.def_387 (and .def_291 .def_294)))
(let ((.def_388 (and .def_306 .def_387)))
(let ((.def_389 (or b.bool_atom__AT0 .def_388)))
(let ((.def_362 (or b.counter.0__AT0 .def_361)))
(let ((.def_360 (or .def_41 b.counter.0__AT1)))
(let ((.def_363 (and .def_360 .def_362)))
(let ((.def_364 (and .def_351 .def_363)))
(let ((.def_365 (or b.counter.1__AT0 .def_364)))
(let ((.def_359 (or .def_39 b.counter.1__AT1)))
(let ((.def_366 (and .def_359 .def_365)))
(let ((.def_378 (and .def_356 .def_366)))
(let ((.def_379 (or b.counter.2__AT0 .def_378)))
(let ((.def_373 (and .def_41 .def_351)))
(let ((.def_374 (or b.counter.1__AT0 .def_373)))
(let ((.def_375 (and .def_359 .def_374)))
(let ((.def_376 (and b.counter.2__AT1 .def_375)))
(let ((.def_377 (or .def_44 .def_376)))
(let ((.def_380 (and .def_377 .def_379)))
(let ((.def_381 (and b.counter.3__AT1 .def_380)))
(let ((.def_382 (or b.counter.3__AT0 .def_381)))
(let ((.def_367 (and b.counter.2__AT1 .def_366)))
(let ((.def_368 (or b.counter.2__AT0 .def_367)))
(let ((.def_354 (or b.counter.1__AT0 b.counter.1__AT1)))
(let ((.def_352 (and b.counter.0__AT1 .def_351)))
(let ((.def_353 (or .def_39 .def_352)))
(let ((.def_355 (and .def_353 .def_354)))
(let ((.def_357 (and .def_355 .def_356)))
(let ((.def_358 (or .def_44 .def_357)))
(let ((.def_369 (and .def_358 .def_368)))
(let ((.def_371 (and .def_369 .def_370)))
(let ((.def_372 (or .def_47 .def_371)))
(let ((.def_383 (and .def_372 .def_382)))
(let ((.def_340 (* b.speed_x__AT0 b.speed_x__AT0)))
(let ((.def_95 (* b.speed_y__AT0 b.speed_y__AT0)))
(let ((.def_341 (+ .def_95 .def_340)))
(let ((.def_342 (* .def_339 .def_341)))
(let ((.def_343 (* (- 1.0) .def_342)))
(let ((.def_347 (+ .def_343 .def_345)))
(let ((.def_348 (+ .def_338 .def_347)))
(let ((.def_349 (= .def_348 0.0 )))
(let ((.def_316 (* 2.0 b.y__AT0)))
(let ((.def_330 (* .def_316 .def_327)))
(let ((.def_331 (* b.speed_y__AT0 .def_330)))
(let ((.def_328 (* b.speed_x__AT0 .def_327)))
(let ((.def_334 (+ .def_328 .def_331)))
(let ((.def_335 (+ .def_325 .def_334)))
(let ((.def_336 (+ b.speed_x__AT1 .def_335)))
(let ((.def_337 (= .def_336 0.0 )))
(let ((.def_350 (and .def_337 .def_349)))
(let ((.def_384 (and .def_350 .def_383)))
(let ((.def_323 (not b.bool_atom__AT0)))
(let ((.def_385 (or .def_323 .def_384)))
(let ((.def_317 (* b.speed_y__AT0 .def_316)))
(let ((.def_318 (+ b.speed_x__AT0 .def_317)))
(let ((.def_319 (<= 0.0 .def_318)))
(let ((.def_320 (not .def_319)))
(let ((.def_63 (* b.y__AT0 b.y__AT0)))
(let ((.def_64 (+ b.x__AT0 .def_63)))
(let ((.def_315 (= .def_64 0.0 )))
(let ((.def_321 (and .def_315 .def_320)))
(let ((.def_322 (= b.bool_atom__AT0 .def_321)))
(let ((.def_386 (and .def_322 .def_385)))
(let ((.def_390 (and .def_386 .def_389)))
(let ((.def_391 (and .def_285 .def_390)))
(let ((.def_392 (and .def_288 .def_391)))
(let ((.def_393 (or .def_264 .def_392)))
(let ((.def_394 (or b.EVENT.1__AT0 .def_393)))
(let ((.def_403 (and .def_394 .def_402)))
(let ((.def_429 (and .def_403 .def_428)))
(let ((.def_271 (= b.time__AT0 b.time__AT1)))
(let ((.def_286 (and .def_271 .def_285)))
(let ((.def_289 (and .def_286 .def_288)))
(let ((.def_292 (and .def_289 .def_291)))
(let ((.def_295 (and .def_292 .def_294)))
(let ((.def_307 (and .def_295 .def_306)))
(let ((.def_311 (and .def_307 .def_310)))
(let ((.def_312 (or .def_58 .def_311)))
(let ((.def_275 (* (- 1.0) b.time__AT1)))
(let ((.def_278 (+ b.delta__AT0 .def_275)))
(let ((.def_279 (+ b.time__AT0 .def_278)))
(let ((.def_280 (= .def_279 0.0 )))
(let ((.def_281 (or .def_266 .def_280)))
(let ((.def_282 (or b.EVENT.1__AT0 .def_281)))
(let ((.def_272 (or .def_264 .def_271)))
(let ((.def_273 (or b.EVENT.1__AT0 .def_272)))
(let ((.def_283 (and .def_273 .def_282)))
(let ((.def_313 (and .def_283 .def_312)))
(let ((.def_268 (= .def_266 b.event_is_timed__AT1)))
(let ((.def_265 (= b.event_is_timed__AT0 .def_264)))
(let ((.def_269 (and .def_265 .def_268)))
(let ((.def_314 (and .def_269 .def_313)))
(let ((.def_430 (and .def_314 .def_429)))
(let ((.def_434 (and .def_430 .def_433)))
(let ((.def_438 (and .def_434 .def_437)))
(let ((.def_439 (and .def_58 .def_438)))
(let ((.def_458 (and .def_439 .def_457)))
(let ((.def_462 (and .def_458 .def_461)))
(let ((.def_231 (+ .def_229 .def_228)))
(let ((.def_244 (<= 0.0 .def_231)))
(let ((.def_245 (not .def_244)))
(let ((.def_242 (<= 0.0 b.speed_y__AT0)))
(let ((.def_259 (or .def_242 .def_245)))
(let ((.def_234 (<= b.speed_y__AT0 0.0 )))
(let ((.def_235 (not .def_234)))
(let ((.def_232 (<= .def_231 0.0 )))
(let ((.def_258 (or .def_232 .def_235)))
(let ((.def_260 (and .def_258 .def_259)))
(let ((.def_103 (* b.y__AT0 b.speed_y__AT0)))
(let ((.def_147 (* 2.0 .def_103)))
(let ((.def_148 (+ b.speed_x__AT0 .def_147)))
(let ((.def_161 (<= .def_148 0.0 )))
(let ((.def_255 (and .def_161 .def_244)))
(let ((.def_149 (<= 0.0 .def_148)))
(let ((.def_254 (and .def_149 .def_232)))
(let ((.def_256 (or .def_254 .def_255)))
(let ((.def_90 (* (- (/ 49 10)) b.speed_y__AT0)))
(let ((.def_122 (* 3.0 .def_90)))
(let ((.def_182 (* 2.0 .def_122)))
(let ((.def_183 (* b.delta__AT0 .def_182)))
(let ((.def_185 (* (- 50.0) .def_183)))
(let ((.def_187 (* (- 50.0) .def_95)))
(let ((.def_192 (+ .def_187 .def_185)))
(let ((.def_181 (* (- 7203.0) .def_81)))
(let ((.def_193 (+ .def_181 .def_192)))
(let ((.def_190 (* 490.0 b.y__AT0)))
(let ((.def_194 (+ .def_190 .def_193)))
(let ((.def_213 (<= 0.0 .def_194)))
(let ((.def_214 (not .def_213)))
(let ((.def_199 (* (- 5.0) .def_95)))
(let ((.def_200 (* 49.0 b.y__AT0)))
(let ((.def_202 (+ .def_200 .def_199)))
(let ((.def_211 (<= 0.0 .def_202)))
(let ((.def_249 (or .def_211 .def_214)))
(let ((.def_203 (<= .def_202 0.0 )))
(let ((.def_204 (not .def_203)))
(let ((.def_195 (<= .def_194 0.0 )))
(let ((.def_248 (or .def_195 .def_204)))
(let ((.def_250 (and .def_248 .def_249)))
(let ((.def_243 (not .def_242)))
(let ((.def_246 (or .def_243 .def_245)))
(let ((.def_247 (not .def_246)))
(let ((.def_251 (or .def_247 .def_250)))
(let ((.def_196 (not .def_195)))
(let ((.def_239 (or .def_196 .def_203)))
(let ((.def_212 (not .def_211)))
(let ((.def_238 (or .def_212 .def_213)))
(let ((.def_240 (and .def_238 .def_239)))
(let ((.def_233 (not .def_232)))
(let ((.def_236 (or .def_233 .def_235)))
(let ((.def_237 (not .def_236)))
(let ((.def_241 (or .def_237 .def_240)))
(let ((.def_252 (and .def_241 .def_251)))
(let ((.def_224 (and .def_161 .def_213)))
(let ((.def_223 (and .def_149 .def_195)))
(let ((.def_225 (or .def_223 .def_224)))
(let ((.def_99 (* (- (/ 49 10)) b.y__AT0)))
(let ((.def_132 (* 2.0 .def_99)))
(let ((.def_133 (* b.delta__AT0 .def_132)))
(let ((.def_134 (* 50.0 .def_133)))
(let ((.def_127 (* 2.0 .def_95)))
(let ((.def_128 (* b.delta__AT0 .def_127)))
(let ((.def_130 (* 25.0 .def_128)))
(let ((.def_140 (+ .def_130 .def_134)))
(let ((.def_123 (* .def_81 .def_122)))
(let ((.def_125 (* 50.0 .def_123)))
(let ((.def_141 (+ .def_125 .def_140)))
(let ((.def_136 (* 50.0 .def_103)))
(let ((.def_142 (+ .def_136 .def_141)))
(let ((.def_82 (* b.delta__AT0 .def_81)))
(let ((.def_120 (* 2401.0 .def_82)))
(let ((.def_143 (+ .def_120 .def_142)))
(let ((.def_138 (* 25.0 b.speed_x__AT0)))
(let ((.def_144 (+ .def_138 .def_143)))
(let ((.def_163 (<= .def_144 0.0 )))
(let ((.def_164 (not .def_163)))
(let ((.def_218 (or .def_161 .def_164)))
(let ((.def_150 (not .def_149)))
(let ((.def_145 (<= 0.0 .def_144)))
(let ((.def_217 (or .def_145 .def_150)))
(let ((.def_219 (and .def_217 .def_218)))
(let ((.def_215 (or .def_212 .def_214)))
(let ((.def_216 (not .def_215)))
(let ((.def_220 (or .def_216 .def_219)))
(let ((.def_146 (not .def_145)))
(let ((.def_208 (or .def_146 .def_149)))
(let ((.def_162 (not .def_161)))
(let ((.def_207 (or .def_162 .def_163)))
(let ((.def_209 (and .def_207 .def_208)))
(let ((.def_205 (or .def_196 .def_204)))
(let ((.def_206 (not .def_205)))
(let ((.def_210 (or .def_206 .def_209)))
(let ((.def_221 (and .def_210 .def_220)))
(let ((.def_176 (and .def_161 .def_163)))
(let ((.def_175 (and .def_145 .def_149)))
(let ((.def_177 (or .def_175 .def_176)))
(let ((.def_104 (* b.delta__AT0 .def_103)))
(let ((.def_105 (* 200.0 .def_104)))
(let ((.def_100 (* .def_81 .def_99)))
(let ((.def_101 (* 200.0 .def_100)))
(let ((.def_111 (+ .def_101 .def_105)))
(let ((.def_96 (* .def_81 .def_95)))
(let ((.def_97 (* 100.0 .def_96)))
(let ((.def_112 (+ .def_97 .def_111)))
(let ((.def_91 (* .def_82 .def_90)))
(let ((.def_93 (* 200.0 .def_91)))
(let ((.def_113 (+ .def_93 .def_112)))
(let ((.def_83 (* b.delta__AT0 .def_82)))
(let ((.def_85 (* 2401.0 .def_83)))
(let ((.def_114 (+ .def_85 .def_113)))
(let ((.def_80 (* 100.0 .def_78)))
(let ((.def_115 (+ .def_80 .def_114)))
(let ((.def_107 (* 100.0 .def_63)))
(let ((.def_116 (+ .def_107 .def_115)))
(let ((.def_109 (* 100.0 b.x__AT0)))
(let ((.def_117 (+ .def_109 .def_116)))
(let ((.def_155 (<= .def_117 0.0 )))
(let ((.def_169 (not .def_155)))
(let ((.def_153 (<= .def_64 0.0 )))
(let ((.def_170 (or .def_153 .def_169)))
(let ((.def_65 (<= 0.0 .def_64)))
(let ((.def_167 (not .def_65)))
(let ((.def_118 (<= 0.0 .def_117)))
(let ((.def_168 (or .def_118 .def_167)))
(let ((.def_171 (and .def_168 .def_170)))
(let ((.def_165 (or .def_162 .def_164)))
(let ((.def_166 (not .def_165)))
(let ((.def_172 (or .def_166 .def_171)))
(let ((.def_157 (not .def_118)))
(let ((.def_158 (or .def_65 .def_157)))
(let ((.def_154 (not .def_153)))
(let ((.def_156 (or .def_154 .def_155)))
(let ((.def_159 (and .def_156 .def_158)))
(let ((.def_151 (or .def_146 .def_150)))
(let ((.def_152 (not .def_151)))
(let ((.def_160 (or .def_152 .def_159)))
(let ((.def_173 (and .def_160 .def_172)))
(let ((.def_119 (and .def_65 .def_118)))
(let ((.def_174 (and .def_119 .def_173)))
(let ((.def_178 (and .def_174 .def_177)))
(let ((.def_222 (and .def_178 .def_221)))
(let ((.def_226 (and .def_222 .def_225)))
(let ((.def_253 (and .def_226 .def_252)))
(let ((.def_257 (and .def_253 .def_256)))
(let ((.def_261 (and .def_257 .def_260)))
(let ((.def_262 (and .def_72 .def_261)))
(let ((.def_73 (and .def_65 .def_72)))
(let ((.def_61 (or .def_58 .def_60)))
(let ((.def_51 (or .def_39 .def_41)))
(let ((.def_55 (or b.counter.3__AT0 .def_51)))
(let ((.def_52 (or b.counter.2__AT0 .def_51)))
(let ((.def_50 (or .def_41 .def_44)))
(let ((.def_53 (and .def_50 .def_52)))
(let ((.def_54 (or .def_47 .def_53)))
(let ((.def_56 (and .def_54 .def_55)))
(let ((.def_62 (and .def_56 .def_61)))
(let ((.def_74 (and .def_62 .def_73)))
(let ((.def_48 (and .def_45 .def_47)))
(let ((.def_36 (= b.speed_y__AT0 1.0 )))
(let ((.def_33 (= b.speed_x__AT0 1.0 )))
(let ((.def_29 (= b.y__AT0 10.0 )))
(let ((.def_25 (= b.x__AT0 (- 9.0) )))
(let ((.def_19 (= b.time__AT0 0.0 )))
(let ((.def_21 (and .def_19 b.event_is_timed__AT0)))
(let ((.def_26 (and .def_21 .def_25)))
(let ((.def_30 (and .def_26 .def_29)))
(let ((.def_34 (and .def_30 .def_33)))
(let ((.def_37 (and .def_34 .def_36)))
(let ((.def_49 (and .def_37 .def_48)))
(let ((.def_75 (and .def_49 .def_74)))
(let ((.def_7 (and .def_4 .def_6)))
(let ((.def_14 (or .def_7 b.counter.3__AT2)))
(let ((.def_10 (and .def_7 .def_9)))
(let ((.def_13 (or .def_10 .def_12)))
(let ((.def_15 (and .def_13 .def_14)))
(let ((.def_16 (not .def_15)))
(let ((.def_76 (and .def_16 .def_75)))
(let ((.def_263 (and .def_76 .def_262)))
(let ((.def_463 (and .def_263 .def_462)))
(let ((.def_632 (and .def_463 .def_631)))
(let ((.def_817 (and .def_632 .def_816)))
(let ((.def_986 (and .def_817 .def_985)))
.def_986)))))))))))))))))))))))))))))))))))))))))))))))))))))))))))))))))))))))))))))))))))))))))))))))))))))))))))))))))))))))))))))))))))))))))))))))))))))))))))))))))))))))))))))))))))))))))))))))))))))))))))))))))))))))))))))))))))))))))))))))))))))))))))))))))))))))))))))))))))))))))))))))))))))))))))))))))))))))))))))))))))))))))))))))))))))))))))))))))))))))))))))))))))))))))))))))))))))))))))))))))))))))))))))))))))))))))))))))))))))))))))))))))))))))))))))))))))))))))))))))))))))))))))))))))))))))))))))))))))))))))))))))))))))))))))))))))))))))))))))))))))))))))))))))))))))))))))))))))))))))))))))))))))))))))))))))))))))))))))))))))))))))))))))))))))))))))))))))))))))))))))))))))))))))))))))))))))))))))))))))))))))))))))))))))))))))))))))))))))))))))))))))))))))))))))))))))))))))))))))))))))))))))))))))))))))))))))))))))))))))))))))))
(check-sat)
(exit)
